1868514
50,24,11,93,28,58,53,27,14,87,75,79,98,35,49,80,22,85,46,56,12,73,0,3,94,77,78,42,51,64,86,43,54,55,95,59,30,92,61,48,74,5,76,62,37,65,6,13,38,91,96,41,34,2,4,63,88,52,84,7,71,67,90,40,68,17,29,20,19,97,70,33,89,10,45,66,60,57,81,15,82,26,1,9,31,69,32,8,36,47,44,16,25,72,83,21,23,18,39
